Input file: instance_3.lp
Input data:
num_squadre(1).
player(1, attaccante, centrocampista).
player(2, centrocampista, attaccante).
player(3, portiere, attaccante).
player(4, attaccante, centrocampista).
player(5, centrocampista, difensore).
player(6, centrocampista, difensore).
player(7, centrocampista, difensore).
player(8, centrocampista, attaccante).
player(9, centrocampista, attaccante).
player(10, centrocampista, difensore).
player(11, attaccante, portiere).
player(12, difensore, attaccante).
player(13, attaccante, difensore).
player(14, centrocampista, difensore).
player(15, difensore, centrocampista).
player(16, centrocampista, portiere).
player(17, attaccante, portiere).
player(18, attaccante, portiere).
player(19, centrocampista, difensore).
player(20, difensore, centrocampista).
player(21, attaccante, difensore).



Output Clingo:
clingo version 5.7.1
Reading from ...ed-Reasoning-Project\Clingo\implASP.lp ...
Solving...
Answer: 1
assigned(1,1,centrocampista) assigned(2,1,centrocampista) assigned(3,1,attaccante) assigned(4,1,centrocampista) assigned(5,1,centrocampista) assigned(6,1,centrocampista) assigned(7,1,centrocampista) assigned(8,1,centrocampista) assigned(9,1,centrocampista) assigned(10,1,centrocampista) assigned(11,1,attaccante) assigned(12,1,difensore) assigned(13,1,difensore) assigned(14,1,centrocampista) assigned(15,1,centrocampista) assigned(16,1,centrocampista) assigned(17,1,attaccante) assigned(18,1,portiere) assigned(19,1,centrocampista) assigned(20,1,centrocampista) assigned(21,1,difensore) total_penalty(1)
Optimization: 1
Answer: 1
assigned(1,1,centrocampista) assigned(2,1,centrocampista) assigned(3,1,attaccante) assigned(4,1,centrocampista) assigned(5,1,centrocampista) assigned(6,1,centrocampista) assigned(7,1,centrocampista) assigned(8,1,centrocampista) assigned(9,1,centrocampista) assigned(10,1,difensore) assigned(11,1,attaccante) assigned(12,1,difensore) assigned(13,1,difensore) assigned(14,1,centrocampista) assigned(15,1,centrocampista) assigned(16,1,centrocampista) assigned(17,1,portiere) assigned(18,1,attaccante) assigned(19,1,centrocampista) assigned(20,1,centrocampista) assigned(21,1,difensore) total_penalty(1)
Optimization: 1
OPTIMUM FOUND

Models       : 2+
  Optimum    : yes
Optimization : 1
Calls        : 1
Time         : 0.005s (Solving: 0.00s 1st Model: 0.00s Unsat: 0.00s)
CPU Time     : 0.000s

Tempo di esecuzione Clingo: 0.02 secondi

Errors Clingo:
C:\Users\ales2\Desktop\AR Project\Automated-Reasoning-Project\Clingo\implASP.lp:22:4-26: info: atom does not occur in any rule head:
  different_team(P1,P2)

